
Gurobi 7.0.2 (win64) logging started 06/27/20 09:39:29

Read LP format model from file C:\George\Professor\Pesquisa\Orientacoes em Pos-graduacao\2019 MSC PPGCC Guilherme Figueroa\Fanjuls Solver\Results\I_50_30_S_1-9_4_MTZ_KB.lp
Reading time = 0.41 seconds
: 5660 rows, 78051 columns, 314030 nonzeros
Optimize a model with 5660 rows, 78051 columns and 314030 nonzeros
Variable types: 1551 continuous, 76500 integer (76500 binary)
Coefficient statistics:
  Matrix range     [1e+00, 1e+02]
  Objective range  [1e+00, 1e+00]
  Bounds range     [1e+00, 1e+00]
  RHS range        [1e+00, 5e+01]
Found heuristic solution: objective 301
Presolve time: 0.79s
Presolved: 5660 rows, 78051 columns, 314030 nonzeros
Variable types: 50 continuous, 78001 integer (78000 binary)

Root simplex log...

Iteration    Objective       Primal Inf.    Dual Inf.      Time
    8000    1.1007491e-04   2.077825e+03   0.000000e+00      5s
   17670    1.0517026e+01   0.000000e+00   0.000000e+00     10s

Root relaxation: objective 1.051703e+01, 17670 iterations, 9.12 seconds

    Nodes    |    Current Node    |     Objective Bounds      |     Work
 Expl Unexpl |  Obj  Depth IntInf | Incumbent    BestBd   Gap | It/Node Time

     0     0   10.51703    0  271  301.00000   10.51703  96.5%     -   10s
H    0     0                      22.0000000   10.51703  52.2%     -   16s
     0     0   10.77761    0  286   22.00000   10.77761  51.0%     -   17s
     0     0   10.77761    0  237   22.00000   10.77761  51.0%     -   18s
H    0     0                      21.0000000   10.77761  48.7%     -   18s
     0     0   11.05432    0  272   21.00000   11.05432  47.4%     -   18s
     0     0   11.08011    0  254   21.00000   11.08011  47.2%     -   18s
     0     0   12.00000    0  275   21.00000   12.00000  42.9%     -   18s
H    0     0                      20.0000000   12.00000  40.0%     -   18s
     0     0   12.00000    0  274   20.00000   12.00000  40.0%     -   18s
     0     0   12.11937    0  296   20.00000   12.11937  39.4%     -   18s
     0     0   12.19887    0  293   20.00000   12.19887  39.0%     -   18s
     0     0   12.63158    0  279   20.00000   12.63158  36.8%     -   18s
     0     0   12.63158    0  266   20.00000   12.63158  36.8%     -   18s
     0     0   12.63158    0  288   20.00000   12.63158  36.8%     -   18s
H    0     0                      19.0000000   12.63158  33.5%     -   19s
     0     0   12.63158    0  278   19.00000   12.63158  33.5%     -   19s
     0     0   12.63158    0  207   19.00000   12.63158  33.5%     -   19s
     0     0   12.63158    0  249   19.00000   12.63158  33.5%     -   19s
     0     0   12.63158    0  196   19.00000   12.63158  33.5%     -   19s
H    0     0                      18.0000000   12.63158  29.8%     -   19s
     0     0   12.80000    0  252   18.00000   12.80000  28.9%     -   19s
     0     0   13.00000    0  112   18.00000   13.00000  27.8%     -   19s
     0     0   13.00000    0  163   18.00000   13.00000  27.8%     -   19s
     0     0   13.00000    0  206   18.00000   13.00000  27.8%     -   20s
     0     0   13.00000    0  150   18.00000   13.00000  27.8%     -   20s
     0     0   13.00000    0  102   18.00000   13.00000  27.8%     -   20s
H    0     0                      17.0000000   13.00000  23.5%     -   20s
     0     0   13.00000    0  213   17.00000   13.00000  23.5%     -   20s
     0     0   13.00000    0  207   17.00000   13.00000  23.5%     -   20s
     0     0   13.00000    0  203   17.00000   13.00000  23.5%     -   21s
     0     2   13.00000    0  163   17.00000   13.00000  23.5%     -   21s
   235   172   15.00000   47  164   17.00000   13.00000  23.5%  64.4   25s
H  299   173                      16.0000000   13.00000  18.7%  63.2   25s
   535   271   15.00000   25  127   16.00000   15.00000  6.25%   105   30s
   862   227   15.00000   44  117   16.00000   15.00000  6.25%  94.3   35s
  1270   108 infeasible   39        16.00000   15.00000  6.25%  89.2   40s
  1750   125 infeasible   35        16.00000   15.00000  6.25%  85.7   45s
  2334   143 infeasible   38        16.00000   15.00000  6.25%  80.1   50s
  2870   150   15.00000   38   99   16.00000   15.00000  6.25%  77.3   55s
  3354   130 infeasible   34        16.00000   15.00000  6.25%  76.2   60s
  3832   125   15.00000   38  102   16.00000   15.00000  6.25%  75.0   65s
  4403   120 infeasible   47        16.00000   15.00000  6.25%  73.2   70s
  4888   107 infeasible   49        16.00000   15.00000  6.25%  72.8   75s
  5459    43   15.00000   47  136   16.00000   15.00000  6.25%  71.7   80s
  6008    38 infeasible   43        16.00000   15.00000  6.25%  70.9   85s
  6618    43 infeasible   53        16.00000   15.00000  6.25%  69.9   90s
  7191    36   15.00000   42  151   16.00000   15.00000  6.25%  69.0   95s
  7704    14   15.00000   42  154   16.00000   15.00000  6.25%  68.8  100s
  8207     6 infeasible   51        16.00000   15.00000  6.25%  69.1  105s

Cutting planes:
  Gomory: 1
  Cover: 4
  Clique: 29
  MIR: 6
  Flow cover: 4
  GUB cover: 4
  Inf proof: 3
  Zero half: 2

Explored 8316 nodes (596979 simplex iterations) in 106.42 seconds
Thread count was 1 (of 12 available processors)

Solution count 8: 16 17 18 ... 301
Pool objective bound 16

Optimal solution found (tolerance 0.00e+00)
Best objective 1.600000000000e+01, best bound 1.600000000000e+01, gap 0.0000%
